NAME : traveling-santa-2018-prime-paths.31471.tour
COMMENT : Length = 31471
COMMENT : Found by LKH [Keld Helsgaun] Sun Jun 12 20:00:25 2022
TYPE : TOUR
DIMENSION : 100
TOUR_SECTION
1
39
84
27
94
78
36
99
8
47
34
11
51
92
68
24
22
31
45
20
74
76
55
89
40
37
86
52
81
88
4
64
16
38
6
96
3
44
63
91
18
14
65
67
10
62
12
30
83
9
23
72
46
61
13
32
56
100
54
53
93
5
29
7
57
87
95
21
2
48
35
79
26
33
49
59
28
66
41
58
17
15
19
97
71
90
73
60
43
82
50
75
25
98
85
42
70
69
77
80
-1
EOF
